
Gurobi 9.5.0 (win64, Python) logging started Tue Aug  8 10:54:06 2023

Set parameter LogFile to value "data/small_training_set/problems/problem_0002_gurobi.log_gurobi.log"
Restricted license - for non-production use only - expires 2023-10-25

Gurobi 9.5.0 (win64, Python) logging started Wed Aug  9 10:07:21 2023

Set parameter LogFile to value "data/small_training_set/problems/problem_0002_gurobi.log_gurobi.log"
Restricted license - for non-production use only - expires 2023-10-25

Gurobi 9.5.0 (win64, Python) logging started Wed Aug  9 17:32:35 2023

Set parameter LogFile to value "data/small_training_set/problems/problem_0002_gurobi.log_gurobi.log"
Restricted license - for non-production use only - expires 2023-10-25

Gurobi 9.5.0 (win64, Python) logging started Mon Aug 28 10:26:28 2023

Set parameter LogFile to value "data/small_training_set/problems/problem_0002_gurobi.log_gurobi.log"
Restricted license - for non-production use only - expires 2023-10-25

Gurobi 9.5.0 (win64, Python) logging started Mon Aug 28 14:26:50 2023

Set parameter LogFile to value "data/small_training_set/problems/problem_0002_gurobi.log_gurobi.log"
Restricted license - for non-production use only - expires 2023-10-25
